p cnf 70 37
r 0.667 70 0
e 35 0
r 0.328 69 0
e 34 0
r 0.463 68 0
e 33 0
r 0.927 67 0
e 32 0
r 0.565 66 0
e 31 0
r 0.922 65 0
e 30 0
r 0.099 64 0
e 29 0
r 0.617 63 0
e 28 0
r 0.303 62 0
e 27 0
r 0.522 61 0
e 26 0
r 0.476 60 0
e 25 0
r 0.238 59 0
e 24 0
r 0.865 58 0
e 23 0
r 0.46 57 0
e 22 0
r 0.035 56 0
e 21 0
r 0.758 55 0
e 20 0
r 0.34 54 0
e 19 0
r 0.894 53 0
e 18 0
r 0.581 52 0
e 17 0
r 0.596 51 0
e 16 0
r 0.63 50 0
e 15 0
r 0.486 49 0
e 14 0
r 0.161 48 0
e 13 0
r 0.405 47 0
e 12 0
r 0.683 46 0
e 11 0
r 0.149 45 0
e 10 0
r 0.861 44 0
e 9 0
r 0.288 43 0
e 8 0
r 0.645 42 0
e 7 0
r 0.473 41 0
e 6 0
r 0.36 40 0
e 5 0
r 0.714 39 0
e 4 0
r 0.48 38 0
e 3 0
r 0.301 37 0
e 2 0
r 0.326 36 0
e 1 0
-35 0
35 69 -34 -68 -33 0
34 68 -33 -67 -32 0
33 67 -32 -66 -31 0
32 66 -31 -65 -30 0
31 65 -30 -64 -29 0
30 64 -29 -63 -28 0
29 63 -28 -62 -27 0
28 62 -27 -61 -26 0
27 61 -26 -60 -25 0
26 60 -25 -59 -24 0
25 59 -24 -58 -23 0
24 58 -23 -57 -22 0
23 57 -22 -56 -21 0
22 56 -21 -55 -20 0
21 55 -20 -54 -19 0
20 54 -19 -53 -18 0
19 53 -18 -52 -17 0
18 52 -17 -51 -16 0
17 51 -16 -50 -15 0
16 50 -15 -49 -14 0
15 49 -14 -48 -13 0
14 48 -13 -47 -12 0
13 47 -12 -46 -11 0
12 46 -11 -45 -10 0
11 45 -10 -44 -9 0
10 44 -9 -43 -8 0
9 43 -8 -42 -7 0
8 42 -7 -41 -6 0
7 41 -6 -40 -5 0
6 40 -5 -39 -4 0
5 39 -4 -38 -3 0
4 38 -3 -37 -2 0
3 37 -2 -36 -1 0
2 1 0
2 -1 0
-2 1 0
